set VV := 0 1 2 ;
set VS := 0 1 2 3 4 5 6 7 8 9 10 ;
param cv := 
0 21
1 20
2 17
;
param cs := 
0 20
1 31
2 27
3 35
4 34
5 24
6 35
7 28
8 34
9 39
10 31
;
param bv:	 0 1 2 := 
		0 0 14 10 
		1 0 0 0 
		2 0 0 0 
;
param bs:	 0 1 2 3 4 5 6 7 8 9 10 := 
		0 0 22 0 0 0 0 0 27 0 21 33 
		1 22 0 0 0 0 0 23 0 0 0 0 
		2 0 0 0 0 0 0 0 0 0 29 0 
		3 0 0 0 0 0 34 0 0 0 0 0 
		4 0 0 0 0 0 29 0 0 0 38 0 
		5 0 0 0 34 29 0 0 0 0 25 0 
		6 0 23 0 0 0 0 0 0 0 0 0 
		7 27 0 0 0 0 0 0 0 0 0 0 
		8 0 0 0 0 0 0 0 0 0 20 0 
		9 21 0 29 0 38 25 0 0 20 0 0 
		10 33 0 0 0 0 0 0 0 0 0 0 
;
